(set-logic ALL)
(declare-fun var0 () String)
(assert (str.in_re var0 (re.++ (re.* (re.union (str.to_re "000") (str.to_re "1"))) (re.++ (re.+ (re.+ (str.to_re "222"))) (re.++ (re.* (re.+ (str.to_re "333"))) (re.++ (re.union (re.+ (str.to_re "44")) (re.+ (str.to_re "555"))) (re.++ (re.union (re.* (str.to_re "6")) (re.* (str.to_re "77"))) (re.++ (re.union (re.* (str.to_re "8")) (re.* (str.to_re "99"))) (re.++ (re.union (re.* (str.to_re "aa")) (re.* (str.to_re "b"))) (re.++ (re.* (re.union (str.to_re "ccc") (str.to_re "dd"))) (re.++ (re.* (re.+ (str.to_re "ee"))) (re.++ (re.+ (re.union (str.to_re "ff") (str.to_re "ggg"))) (re.++ (re.union (re.* (str.to_re "hh")) (re.* (str.to_re "iii"))) (re.++ (re.* (re.union (str.to_re "jj") (str.to_re "kk"))) (re.++ (re.* (re.union (str.to_re "l") (str.to_re "mm"))) (re.++ (re.+ (re.union (str.to_re "n") (str.to_re "o"))) (re.++ (re.+ (re.+ (str.to_re "pp"))) (re.+ (re.+ (str.to_re "qqq"))))))))))))))))))))
(assert (not (str.in_re var0 (re.++ (re.* (re.+ (str.to_re "0"))) (re.++ (re.+ (re.union (str.to_re "11") (str.to_re "2"))) (re.++ (re.+ (re.* (str.to_re "333"))) (re.++ (re.* (re.* (str.to_re "44"))) (re.++ (re.union (re.* (str.to_re "555")) (re.* (str.to_re "6"))) (re.++ (re.+ (re.+ (str.to_re "77"))) (re.++ (re.union (re.+ (str.to_re "8")) (re.+ (str.to_re "9"))) (re.++ (re.* (re.* (str.to_re "aa"))) (re.++ (re.union (re.union (str.to_re "bb") (str.to_re "cc")) (re.union (str.to_re "dd") (str.to_re "eee"))) (re.++ (re.union (re.* (str.to_re "ff")) (re.* (str.to_re "g"))) (re.++ (re.union (re.* (str.to_re "hh")) (re.* (str.to_re "i"))) (re.++ (re.union (re.* (str.to_re "jjj")) (re.* (str.to_re "k"))) (re.++ (re.* (re.union (str.to_re "lll") (str.to_re "mm"))) (re.++ (re.+ (re.union (str.to_re "n") (str.to_re "ooo"))) (re.++ (re.+ (re.* (str.to_re "pp"))) (re.* (re.* (str.to_re "qqq")))))))))))))))))))))
(check-sat)